NAME: Tnm76
COMMENT: Recalculated optimal tour for Tnm76, using concorde got a tour of length 949961.0
TYPE: TOUR
DIMENSION: 76
TOUR_SECTION:
1
54
51
56
48
45
59
62
65
68
71
42
39
36
33
30
27
24
21
18
15
12
9
6
3
53
50
55
58
47
44
41
38
35
32
29
26
61
64
67
70
73
74
76
75
72
69
66
63
23
20
17
14
11
8
5
60
57
2
52
49
46
43
40
37
34
31
28
25
22
19
16
13
10
7
4 
-1
EOF
